unsat
(:SPACER-conj                         2
 :SPACER-inductive-gen                22
 :SPACER-inductive-gen-weaken-fail    22
 :SPACER-inductive-level              7
 :SPACER-max-depth                    8
 :SPACER-max-query-lvl                8
 :SPACER-non-local-gen                11
 :SPACER-num-active-lemmas            15
 :SPACER-num-ctp-blocked              16
 :SPACER-num-invariants               7
 :SPACER-num-is_invariant             52
 :SPACER-num-lemmas                   42
 :SPACER-num-pobs                     17
 :SPACER-num-propagations             16
 :SPACER-num-queries                  25
 :SPACER-num-reach-queries            1
 :SPACER-num-reuse-reach-facts        1
 :SPACER-subsume-failed               1
 :SPACER-subsume-pob                  2
 :SPACER-subsume-success              2
 :added-eqs                           5188
 :arith-assert-diseq                  1058
 :arith-assert-lower                  4908
 :arith-assert-upper                  6588
 :arith-bound-prop                    442
 :arith-conflicts                     110
 :arith-eq-adapter                    808
 :arith-fixed-eqs                     788
 :arith-num-rows                      54
 :arith-offset-eqs                    96
 :arith-pivots                        448
 :arith-row-summations                1108
 :arith-tableau-max-columns           138
 :arith-tableau-max-rows              54
 :conflicts                           446
 :decisions                           3748
 :del-clause                          564
 :final-checks                        108
 :iuc_solver.num_proxies              64
 :max-memory                          32.23
 :memory                              31.70
 :minimized-lits                      10
 :mk-bool-var                         2580
 :mk-clause                           2004
 :num-allocs                          29216985
 :num-checks                          352
 :pool_solver.checks                  176
 :pool_solver.checks.sat              54
 :propagations                        23866
 :rlimit-count                        123327
 :time                                0.15
 :time.iuc_solver.get_iuc             0.02
 :time.iuc_solver.get_iuc.hyp_reduce1 0.00
 :time.iuc_solver.get_iuc.hyp_reduce2 0.01
 :time.iuc_solver.get_iuc.learn_core  0.00
 :time.pool_solver.proof              0.00
 :time.pool_solver.smt.total          0.05
 :time.pool_solver.smt.total.sat      0.02
 :time.spacer.ctp                     0.00
 :time.spacer.init_rules              0.00
 :time.spacer.mbp                     0.00
 :time.spacer.solve                   0.13
 :time.spacer.solve.propagate         0.02
 :time.spacer.solve.reach             0.11
 :time.spacer.solve.reach.children    0.01
 :time.spacer.solve.reach.cluster     0.01
 :time.spacer.solve.reach.gen.global  0.02
 :time.spacer.solve.reach.gen.ind     0.01)
(:max-memory   32.23
 :memory       31.70
 :num-allocs   29216985
 :rlimit-count 123327
 :time         0.15
 :total-time   0.16)
